62
3
0 4 5 6 7 8 9 10 11 12 16 17 19 20 21 23 24 27 28 29 30 31 32 33 34 35 37 38 39 40 41 42 43 44 46 47 48 49 50 52 53 54 58 59 60 61
1 4 7 8 9 11 12 13 14 15 17 18 19 22 25 28 29 30 31 33 37 38 39 45 49 50 51 55 56 58 59 60
2 3 5 13 24 26 29 32 36 39 42 43 46 47 50 57
